0000000000000000
0000000000000000
0000000000000000
0000000000000000
0000000011111100
0000000011111100
0000000000111100
0000000000111100
0000000000111100
0000000000111100
0000000000111100
0000000000111100
0000000000111100
0000000000111100
0000000000111100
0000000000111100
